data;

param n:=23;
param p:=3;
param r:=[1] 0 [2] 0 [3] 0 [4] 5 [5] 11 [6] 0 [7] 8 [8] 9 [9] 7 [10] 16 [11] 6 [12] 23 [13] 0 [14] 9 [15] 0 [16] 32 [17] 8 [18] 27 [19] 26 [20] 3 [21] 35 [22] 57 [23] 1 ;
param w:=[1] 43 [2] 40 [3] 6 [4] 68 [5] 88 [6] 71 [7] 69 [8] 80 [9] 69 [10] 54 [11] 96 [12] 88 [13] 92 [14] 83 [15] 96 [16] 33 [17] 71 [18] 96 [19] 63 [20] 12 [21] 31 [22] 81 [23] 71 ;

end;
